COMUNI = {
	narni,
	assisi,
	magione,
};

NUMERO_COMUNI = 3;

ABITANTI_PER_COMUNE = [17, 27, 14];

STRADE_TRA_COMUNI = [|
	false, false, false |
	false, false, false |
	false, false, false |
|];

RICHIESTE = [|
	522, 398, 518, 454, 160 |
	355, 205, 296, 183, 671 |
	731, 1235, 1993, 1932, 340 |
|];
